c File: flat100_3_0.col 0
c 0 0 0
c SOURCE: Joseph Culberson (joe@cs.ualberta.ca)
c DESCRIPTION: Quasi-random coloring problem
c              generated with flatness = 0
c                             probability = 0.072
c                             known coloring = 3
c                             random seed = 1010
c              Creation Date:  Thu Jun  4 18:54:50 1998
c Maximum degree = 8 Minimum degree = 1
c p edge 100 239
c cnf created by edge2cnf
p cnf 300 1117
-1 -2 0 0
-1 -3 0 0
-2 -3 0 0
1 2 3 0
-4 -5 0 0
-4 -6 0 0
-5 -6 0 0
4 5 6 0
-7 -8 0 0
-7 -9 0 0
-8 -9 0 0
7 8 9 0
-10 -11 0 0
-10 -12 0 0
-11 -12 0 0
10 11 12 0
-13 -14 0 0
-13 -15 0 0
-14 -15 0 0
13 14 15 0
-16 -17 0 0
-16 -18 0 0
-17 -18 0 0
16 17 18 0
-19 -20 0 0
-19 -21 0 0
-20 -21 0 0
19 20 21 0
-22 -23 0 0
-22 -24 0 0
-23 -24 0 0
22 23 24 0
-25 -26 0 0
-25 -27 0 0
-26 -27 0 0
25 26 27 0
-28 -29 0 0
-28 -30 0 0
-29 -30 0 0
28 29 30 0
-31 -32 0 0
-31 -33 0 0
-32 -33 0 0
31 32 33 0
-34 -35 0 0
-34 -36 0 0
-35 -36 0 0
34 35 36 0
-37 -38 0 0
-37 -39 0 0
-38 -39 0 0
37 38 39 0
-40 -41 0 0
-40 -42 0 0
-41 -42 0 0
40 41 42 0
-43 -44 0 0
-43 -45 0 0
-44 -45 0 0
43 44 45 0
-46 -47 0 0
-46 -48 0 0
-47 -48 0 0
46 47 48 0
-49 -50 0 0
-49 -51 0 0
-50 -51 0 0
49 50 51 0
-52 -53 0 0
-52 -54 0 0
-53 -54 0 0
52 53 54 0
-55 -56 0 0
-55 -57 0 0
-56 -57 0 0
55 56 57 0
-58 -59 0 0
-58 -60 0 0
-59 -60 0 0
58 59 60 0
-61 -62 0 0
-61 -63 0 0
-62 -63 0 0
61 62 63 0
-64 -65 0 0
-64 -66 0 0
-65 -66 0 0
64 65 66 0
-67 -68 0 0
-67 -69 0 0
-68 -69 0 0
67 68 69 0
-70 -71 0 0
-70 -72 0 0
-71 -72 0 0
70 71 72 0
-73 -74 0 0
-73 -75 0 0
-74 -75 0 0
73 74 75 0
-76 -77 0 0
-76 -78 0 0
-77 -78 0 0
76 77 78 0
-79 -80 0 0
-79 -81 0 0
-80 -81 0 0
79 80 81 0
-82 -83 0 0
-82 -84 0 0
-83 -84 0 0
82 83 84 0
-85 -86 0 0
-85 -87 0 0
-86 -87 0 0
85 86 87 0
-88 -89 0 0
-88 -90 0 0
-89 -90 0 0
88 89 90 0
-91 -92 0 0
-91 -93 0 0
-92 -93 0 0
91 92 93 0
-94 -95 0 0
-94 -96 0 0
-95 -96 0 0
94 95 96 0
-97 -98 0 0
-97 -99 0 0
-98 -99 0 0
97 98 99 0
-100 -101 0 0
-100 -102 0 0
-101 -102 0 0
100 101 102 0
-103 -104 0 0
-103 -105 0 0
-104 -105 0 0
103 104 105 0
-106 -107 0 0
-106 -108 0 0
-107 -108 0 0
106 107 108 0
-109 -110 0 0
-109 -111 0 0
-110 -111 0 0
109 110 111 0
-112 -113 0 0
-112 -114 0 0
-113 -114 0 0
112 113 114 0
-115 -116 0 0
-115 -117 0 0
-116 -117 0 0
115 116 117 0
-118 -119 0 0
-118 -120 0 0
-119 -120 0 0
118 119 120 0
-121 -122 0 0
-121 -123 0 0
-122 -123 0 0
121 122 123 0
-124 -125 0 0
-124 -126 0 0
-125 -126 0 0
124 125 126 0
-127 -128 0 0
-127 -129 0 0
-128 -129 0 0
127 128 129 0
-130 -131 0 0
-130 -132 0 0
-131 -132 0 0
130 131 132 0
-133 -134 0 0
-133 -135 0 0
-134 -135 0 0
133 134 135 0
-136 -137 0 0
-136 -138 0 0
-137 -138 0 0
136 137 138 0
-139 -140 0 0
-139 -141 0 0
-140 -141 0 0
139 140 141 0
-142 -143 0 0
-142 -144 0 0
-143 -144 0 0
142 143 144 0
-145 -146 0 0
-145 -147 0 0
-146 -147 0 0
145 146 147 0
-148 -149 0 0
-148 -150 0 0
-149 -150 0 0
148 149 150 0
-151 -152 0 0
-151 -153 0 0
-152 -153 0 0
151 152 153 0
-154 -155 0 0
-154 -156 0 0
-155 -156 0 0
154 155 156 0
-157 -158 0 0
-157 -159 0 0
-158 -159 0 0
157 158 159 0
-160 -161 0 0
-160 -162 0 0
-161 -162 0 0
160 161 162 0
-163 -164 0 0
-163 -165 0 0
-164 -165 0 0
163 164 165 0
-166 -167 0 0
-166 -168 0 0
-167 -168 0 0
166 167 168 0
-169 -170 0 0
-169 -171 0 0
-170 -171 0 0
169 170 171 0
-172 -173 0 0
-172 -174 0 0
-173 -174 0 0
172 173 174 0
-175 -176 0 0
-175 -177 0 0
-176 -177 0 0
175 176 177 0
-178 -179 0 0
-178 -180 0 0
-179 -180 0 0
178 179 180 0
-181 -182 0 0
-181 -183 0 0
-182 -183 0 0
181 182 183 0
-184 -185 0 0
-184 -186 0 0
-185 -186 0 0
184 185 186 0
-187 -188 0 0
-187 -189 0 0
-188 -189 0 0
187 188 189 0
-190 -191 0 0
-190 -192 0 0
-191 -192 0 0
190 191 192 0
-193 -194 0 0
-193 -195 0 0
-194 -195 0 0
193 194 195 0
-196 -197 0 0
-196 -198 0 0
-197 -198 0 0
196 197 198 0
-199 -200 0 0
-199 -201 0 0
-200 -201 0 0
199 200 201 0
-202 -203 0 0
-202 -204 0 0
-203 -204 0 0
202 203 204 0
-205 -206 0 0
-205 -207 0 0
-206 -207 0 0
205 206 207 0
-208 -209 0 0
-208 -210 0 0
-209 -210 0 0
208 209 210 0
-211 -212 0 0
-211 -213 0 0
-212 -213 0 0
211 212 213 0
-214 -215 0 0
-214 -216 0 0
-215 -216 0 0
214 215 216 0
-217 -218 0 0
-217 -219 0 0
-218 -219 0 0
217 218 219 0
-220 -221 0 0
-220 -222 0 0
-221 -222 0 0
220 221 222 0
-223 -224 0 0
-223 -225 0 0
-224 -225 0 0
223 224 225 0
-226 -227 0 0
-226 -228 0 0
-227 -228 0 0
226 227 228 0
-229 -230 0 0
-229 -231 0 0
-230 -231 0 0
229 230 231 0
-232 -233 0 0
-232 -234 0 0
-233 -234 0 0
232 233 234 0
-235 -236 0 0
-235 -237 0 0
-236 -237 0 0
235 236 237 0
-238 -239 0 0
-238 -240 0 0
-239 -240 0 0
238 239 240 0
-241 -242 0 0
-241 -243 0 0
-242 -243 0 0
241 242 243 0
-244 -245 0 0
-244 -246 0 0
-245 -246 0 0
244 245 246 0
-247 -248 0 0
-247 -249 0 0
-248 -249 0 0
247 248 249 0
-250 -251 0 0
-250 -252 0 0
-251 -252 0 0
250 251 252 0
-253 -254 0 0
-253 -255 0 0
-254 -255 0 0
253 254 255 0
-256 -257 0 0
-256 -258 0 0
-257 -258 0 0
256 257 258 0
-259 -260 0 0
-259 -261 0 0
-260 -261 0 0
259 260 261 0
-262 -263 0 0
-262 -264 0 0
-263 -264 0 0
262 263 264 0
-265 -266 0 0
-265 -267 0 0
-266 -267 0 0
265 266 267 0
-268 -269 0 0
-268 -270 0 0
-269 -270 0 0
268 269 270 0
-271 -272 0 0
-271 -273 0 0
-272 -273 0 0
271 272 273 0
-274 -275 0 0
-274 -276 0 0
-275 -276 0 0
274 275 276 0
-277 -278 0 0
-277 -279 0 0
-278 -279 0 0
277 278 279 0
-280 -281 0 0
-280 -282 0 0
-281 -282 0 0
280 281 282 0
-283 -284 0 0
-283 -285 0 0
-284 -285 0 0
283 284 285 0
-286 -287 0 0
-286 -288 0 0
-287 -288 0 0
286 287 288 0
-289 -290 0 0
-289 -291 0 0
-290 -291 0 0
289 290 291 0
-292 -293 0 0
-292 -294 0 0
-293 -294 0 0
292 293 294 0
-295 -296 0 0
-295 -297 0 0
-296 -297 0 0
295 296 297 0
-298 -299 0 0
-298 -300 0 0
-299 -300 0 0
298 299 300 0
-121 -1 0 0
-122 -2 0 0
-123 -3 0 0
-154 -1 0 0
-155 -2 0 0
-156 -3 0 0
-181 -1 0 0
-182 -2 0 0
-183 -3 0 0
-244 -1 0 0
-245 -2 0 0
-246 -3 0 0
-283 -1 0 0
-284 -2 0 0
-285 -3 0 0
-112 -4 0 0
-113 -5 0 0
-114 -6 0 0
-115 -4 0 0
-116 -5 0 0
-117 -6 0 0
-151 -4 0 0
-152 -5 0 0
-153 -6 0 0
-187 -4 0 0
-188 -5 0 0
-189 -6 0 0
-211 -4 0 0
-212 -5 0 0
-213 -6 0 0
-250 -4 0 0
-251 -5 0 0
-252 -6 0 0
-268 -4 0 0
-269 -5 0 0
-270 -6 0 0
-295 -4 0 0
-296 -5 0 0
-297 -6 0 0
-202 -7 0 0
-203 -8 0 0
-204 -9 0 0
-217 -7 0 0
-218 -8 0 0
-219 -9 0 0
-226 -7 0 0
-227 -8 0 0
-228 -9 0 0
-184 -10 0 0
-185 -11 0 0
-186 -12 0 0
-199 -10 0 0
-200 -11 0 0
-201 -12 0 0
-220 -10 0 0
-221 -11 0 0
-222 -12 0 0
-250 -10 0 0
-251 -11 0 0
-252 -12 0 0
-277 -10 0 0
-278 -11 0 0
-279 -12 0 0
-280 -10 0 0
-281 -11 0 0
-282 -12 0 0
-106 -13 0 0
-107 -14 0 0
-108 -15 0 0
-127 -13 0 0
-128 -14 0 0
-129 -15 0 0
-292 -13 0 0
-293 -14 0 0
-294 -15 0 0
-142 -16 0 0
-143 -17 0 0
-144 -18 0 0
-154 -16 0 0
-155 -17 0 0
-156 -18 0 0
-178 -16 0 0
-179 -17 0 0
-180 -18 0 0
-223 -16 0 0
-224 -17 0 0
-225 -18 0 0
-274 -16 0 0
-275 -17 0 0
-276 -18 0 0
-103 -19 0 0
-104 -20 0 0
-105 -21 0 0
-130 -19 0 0
-131 -20 0 0
-132 -21 0 0
-145 -19 0 0
-146 -20 0 0
-147 -21 0 0
-211 -19 0 0
-212 -20 0 0
-213 -21 0 0
-232 -19 0 0
-233 -20 0 0
-234 -21 0 0
-241 -19 0 0
-242 -20 0 0
-243 -21 0 0
-259 -19 0 0
-260 -20 0 0
-261 -21 0 0
-115 -22 0 0
-116 -23 0 0
-117 -24 0 0
-130 -22 0 0
-131 -23 0 0
-132 -24 0 0
-157 -22 0 0
-158 -23 0 0
-159 -24 0 0
-160 -22 0 0
-161 -23 0 0
-162 -24 0 0
-226 -22 0 0
-227 -23 0 0
-228 -24 0 0
-298 -22 0 0
-299 -23 0 0
-300 -24 0 0
-106 -25 0 0
-107 -26 0 0
-108 -27 0 0
-148 -25 0 0
-149 -26 0 0
-150 -27 0 0
-151 -25 0 0
-152 -26 0 0
-153 -27 0 0
-205 -25 0 0
-206 -26 0 0
-207 -27 0 0
-277 -25 0 0
-278 -26 0 0
-279 -27 0 0
-112 -28 0 0
-113 -29 0 0
-114 -30 0 0
-145 -28 0 0
-146 -29 0 0
-147 -30 0 0
-166 -28 0 0
-167 -29 0 0
-168 -30 0 0
-136 -31 0 0
-137 -32 0 0
-138 -33 0 0
-157 -31 0 0
-158 -32 0 0
-159 -33 0 0
-160 -31 0 0
-161 -32 0 0
-162 -33 0 0
-187 -31 0 0
-188 -32 0 0
-189 -33 0 0
-202 -31 0 0
-203 -32 0 0
-204 -33 0 0
-208 -31 0 0
-209 -32 0 0
-210 -33 0 0
-241 -31 0 0
-242 -32 0 0
-243 -33 0 0
-130 -34 0 0
-131 -35 0 0
-132 -36 0 0
-145 -34 0 0
-146 -35 0 0
-147 -36 0 0
-160 -34 0 0
-161 -35 0 0
-162 -36 0 0
-184 -34 0 0
-185 -35 0 0
-186 -36 0 0
-256 -34 0 0
-257 -35 0 0
-258 -36 0 0
-259 -37 0 0
-260 -38 0 0
-261 -39 0 0
-127 -40 0 0
-128 -41 0 0
-129 -42 0 0
-178 -40 0 0
-179 -41 0 0
-180 -42 0 0
-112 -43 0 0
-113 -44 0 0
-114 -45 0 0
-133 -43 0 0
-134 -44 0 0
-135 -45 0 0
-178 -43 0 0
-179 -44 0 0
-180 -45 0 0
-181 -43 0 0
-182 -44 0 0
-183 -45 0 0
-211 -43 0 0
-212 -44 0 0
-213 -45 0 0
-289 -43 0 0
-290 -44 0 0
-291 -45 0 0
-109 -46 0 0
-110 -47 0 0
-111 -48 0 0
-115 -46 0 0
-116 -47 0 0
-117 -48 0 0
-133 -46 0 0
-134 -47 0 0
-135 -48 0 0
-190 -46 0 0
-191 -47 0 0
-192 -48 0 0
-295 -46 0 0
-296 -47 0 0
-297 -48 0 0
-151 -49 0 0
-152 -50 0 0
-153 -51 0 0
-208 -49 0 0
-209 -50 0 0
-210 -51 0 0
-220 -49 0 0
-221 -50 0 0
-222 -51 0 0
-256 -49 0 0
-257 -50 0 0
-258 -51 0 0
-289 -49 0 0
-290 -50 0 0
-291 -51 0 0
-142 -52 0 0
-143 -53 0 0
-144 -54 0 0
-166 -52 0 0
-167 -53 0 0
-168 -54 0 0
-208 -52 0 0
-209 -53 0 0
-210 -54 0 0
-226 -52 0 0
-227 -53 0 0
-228 -54 0 0
-253 -52 0 0
-254 -53 0 0
-255 -54 0 0
-115 -55 0 0
-116 -56 0 0
-117 -57 0 0
-154 -55 0 0
-155 -56 0 0
-156 -57 0 0
-190 -55 0 0
-191 -56 0 0
-192 -57 0 0
-196 -55 0 0
-197 -56 0 0
-198 -57 0 0
-247 -55 0 0
-248 -56 0 0
-249 -57 0 0
-256 -55 0 0
-257 -56 0 0
-258 -57 0 0
-109 -58 0 0
-110 -59 0 0
-111 -60 0 0
-118 -58 0 0
-119 -59 0 0
-120 -60 0 0
-259 -58 0 0
-260 -59 0 0
-261 -60 0 0
-292 -58 0 0
-293 -59 0 0
-294 -60 0 0
-187 -61 0 0
-188 -62 0 0
-189 -63 0 0
-208 -61 0 0
-209 -62 0 0
-210 -63 0 0
-250 -61 0 0
-251 -62 0 0
-252 -63 0 0
-283 -61 0 0
-284 -62 0 0
-285 -63 0 0
-286 -61 0 0
-287 -62 0 0
-288 -63 0 0
-157 -64 0 0
-158 -65 0 0
-159 -66 0 0
-226 -64 0 0
-227 -65 0 0
-228 -66 0 0
-229 -64 0 0
-230 -65 0 0
-231 -66 0 0
-250 -64 0 0
-251 -65 0 0
-252 -66 0 0
-283 -64 0 0
-284 -65 0 0
-285 -66 0 0
-130 -67 0 0
-131 -68 0 0
-132 -69 0 0
-151 -67 0 0
-152 -68 0 0
-153 -69 0 0
-217 -67 0 0
-218 -68 0 0
-219 -69 0 0
-241 -67 0 0
-242 -68 0 0
-243 -69 0 0
-133 -70 0 0
-134 -71 0 0
-135 -72 0 0
-181 -70 0 0
-182 -71 0 0
-183 -72 0 0
-235 -70 0 0
-236 -71 0 0
-237 -72 0 0
-121 -73 0 0
-122 -74 0 0
-123 -75 0 0
-133 -73 0 0
-134 -74 0 0
-135 -75 0 0
-142 -73 0 0
-143 -74 0 0
-144 -75 0 0
-175 -73 0 0
-176 -74 0 0
-177 -75 0 0
-214 -73 0 0
-215 -74 0 0
-216 -75 0 0
-220 -73 0 0
-221 -74 0 0
-222 -75 0 0
-253 -73 0 0
-254 -74 0 0
-255 -75 0 0
-274 -73 0 0
-275 -74 0 0
-276 -75 0 0
-274 -76 0 0
-275 -77 0 0
-276 -78 0 0
-286 -76 0 0
-287 -77 0 0
-288 -78 0 0
-109 -79 0 0
-110 -80 0 0
-111 -81 0 0
-160 -79 0 0
-161 -80 0 0
-162 -81 0 0
-196 -79 0 0
-197 -80 0 0
-198 -81 0 0
-241 -79 0 0
-242 -80 0 0
-243 -81 0 0
-199 -82 0 0
-200 -83 0 0
-201 -84 0 0
-259 -82 0 0
-260 -83 0 0
-261 -84 0 0
-271 -82 0 0
-272 -83 0 0
-273 -84 0 0
-103 -85 0 0
-104 -86 0 0
-105 -87 0 0
-112 -85 0 0
-113 -86 0 0
-114 -87 0 0
-169 -85 0 0
-170 -86 0 0
-171 -87 0 0
-217 -85 0 0
-218 -86 0 0
-219 -87 0 0
-271 -85 0 0
-272 -86 0 0
-273 -87 0 0
-277 -85 0 0
-278 -86 0 0
-279 -87 0 0
-286 -85 0 0
-287 -86 0 0
-288 -87 0 0
-166 -88 0 0
-167 -89 0 0
-168 -90 0 0
-181 -88 0 0
-182 -89 0 0
-183 -90 0 0
-205 -88 0 0
-206 -89 0 0
-207 -90 0 0
-253 -88 0 0
-254 -89 0 0
-255 -90 0 0
-289 -88 0 0
-290 -89 0 0
-291 -90 0 0
-292 -88 0 0
-293 -89 0 0
-294 -90 0 0
-118 -91 0 0
-119 -92 0 0
-120 -93 0 0
-286 -91 0 0
-287 -92 0 0
-288 -93 0 0
-145 -94 0 0
-146 -95 0 0
-147 -96 0 0
-232 -94 0 0
-233 -95 0 0
-234 -96 0 0
-244 -94 0 0
-245 -95 0 0
-246 -96 0 0
-247 -94 0 0
-248 -95 0 0
-249 -96 0 0
-265 -94 0 0
-266 -95 0 0
-267 -96 0 0
-121 -97 0 0
-122 -98 0 0
-123 -99 0 0
-142 -97 0 0
-143 -98 0 0
-144 -99 0 0
-154 -97 0 0
-155 -98 0 0
-156 -99 0 0
-217 -97 0 0
-218 -98 0 0
-219 -99 0 0
-271 -97 0 0
-272 -98 0 0
-273 -99 0 0
-148 -100 0 0
-149 -101 0 0
-150 -102 0 0
-178 -100 0 0
-179 -101 0 0
-180 -102 0 0
-220 -100 0 0
-221 -101 0 0
-222 -102 0 0
-277 -100 0 0
-278 -101 0 0
-279 -102 0 0
-283 -100 0 0
-284 -101 0 0
-285 -102 0 0
-214 -103 0 0
-215 -104 0 0
-216 -105 0 0
-217 -103 0 0
-218 -104 0 0
-219 -105 0 0
-259 -103 0 0
-260 -104 0 0
-261 -105 0 0
-262 -103 0 0
-263 -104 0 0
-264 -105 0 0
-217 -106 0 0
-218 -107 0 0
-219 -108 0 0
-259 -106 0 0
-260 -107 0 0
-261 -108 0 0
-205 -109 0 0
-206 -110 0 0
-207 -111 0 0
-211 -109 0 0
-212 -110 0 0
-213 -111 0 0
-220 -109 0 0
-221 -110 0 0
-222 -111 0 0
-226 -112 0 0
-227 -113 0 0
-228 -114 0 0
-205 -115 0 0
-206 -116 0 0
-207 -117 0 0
-205 -118 0 0
-206 -119 0 0
-207 -120 0 0
-238 -118 0 0
-239 -119 0 0
-240 -120 0 0
-256 -118 0 0
-257 -119 0 0
-258 -120 0 0
-286 -118 0 0
-287 -119 0 0
-288 -120 0 0
-295 -121 0 0
-296 -122 0 0
-297 -123 0 0
-220 -124 0 0
-221 -125 0 0
-222 -126 0 0
-250 -124 0 0
-251 -125 0 0
-252 -126 0 0
-271 -124 0 0
-272 -125 0 0
-273 -126 0 0
-298 -124 0 0
-299 -125 0 0
-300 -126 0 0
-208 -127 0 0
-209 -128 0 0
-210 -129 0 0
-262 -127 0 0
-263 -128 0 0
-264 -129 0 0
-286 -127 0 0
-287 -128 0 0
-288 -129 0 0
-202 -130 0 0
-203 -131 0 0
-204 -132 0 0
-217 -130 0 0
-218 -131 0 0
-219 -132 0 0
-271 -130 0 0
-272 -131 0 0
-273 -132 0 0
-205 -133 0 0
-206 -134 0 0
-207 -135 0 0
-226 -133 0 0
-227 -134 0 0
-228 -135 0 0
-256 -133 0 0
-257 -134 0 0
-258 -135 0 0
-286 -133 0 0
-287 -134 0 0
-288 -135 0 0
-235 -136 0 0
-236 -137 0 0
-237 -138 0 0
-265 -136 0 0
-266 -137 0 0
-267 -138 0 0
-277 -136 0 0
-278 -137 0 0
-279 -138 0 0
-265 -139 0 0
-266 -140 0 0
-267 -141 0 0
-292 -139 0 0
-293 -140 0 0
-294 -141 0 0
-241 -142 0 0
-242 -143 0 0
-243 -144 0 0
-262 -142 0 0
-263 -143 0 0
-264 -144 0 0
-268 -142 0 0
-269 -143 0 0
-270 -144 0 0
-277 -142 0 0
-278 -143 0 0
-279 -144 0 0
-235 -145 0 0
-236 -146 0 0
-237 -147 0 0
-223 -148 0 0
-224 -149 0 0
-225 -150 0 0
-283 -148 0 0
-284 -149 0 0
-285 -150 0 0
-223 -151 0 0
-224 -152 0 0
-225 -153 0 0
-295 -151 0 0
-296 -152 0 0
-297 -153 0 0
-202 -154 0 0
-203 -155 0 0
-204 -156 0 0
-268 -154 0 0
-269 -155 0 0
-270 -156 0 0
-232 -157 0 0
-233 -158 0 0
-234 -159 0 0
-271 -157 0 0
-272 -158 0 0
-273 -159 0 0
-235 -160 0 0
-236 -161 0 0
-237 -162 0 0
-262 -160 0 0
-263 -161 0 0
-264 -162 0 0
-214 -163 0 0
-215 -164 0 0
-216 -165 0 0
-283 -163 0 0
-284 -164 0 0
-285 -165 0 0
-289 -163 0 0
-290 -164 0 0
-291 -165 0 0
-250 -166 0 0
-251 -167 0 0
-252 -168 0 0
-238 -169 0 0
-239 -170 0 0
-240 -171 0 0
-244 -169 0 0
-245 -170 0 0
-246 -171 0 0
-247 -169 0 0
-248 -170 0 0
-249 -171 0 0
-280 -169 0 0
-281 -170 0 0
-282 -171 0 0
-259 -172 0 0
-260 -173 0 0
-261 -174 0 0
-289 -175 0 0
-290 -176 0 0
-291 -177 0 0
-253 -178 0 0
-254 -179 0 0
-255 -180 0 0
-265 -178 0 0
-266 -179 0 0
-267 -180 0 0
-274 -181 0 0
-275 -182 0 0
-276 -183 0 0
-244 -184 0 0
-245 -185 0 0
-246 -186 0 0
-259 -184 0 0
-260 -185 0 0
-261 -186 0 0
-274 -184 0 0
-275 -185 0 0
-276 -186 0 0
-232 -187 0 0
-233 -188 0 0
-234 -189 0 0
-265 -187 0 0
-266 -188 0 0
-267 -189 0 0
-214 -190 0 0
-215 -191 0 0
-216 -192 0 0
-253 -190 0 0
-254 -191 0 0
-255 -192 0 0
-268 -193 0 0
-269 -194 0 0
-270 -195 0 0
-232 -196 0 0
-233 -197 0 0
-234 -198 0 0
-250 -196 0 0
-251 -197 0 0
-252 -198 0 0
-298 -196 0 0
-299 -197 0 0
-300 -198 0 0
-214 -199 0 0
-215 -200 0 0
-216 -201 0 0
-238 -199 0 0
-239 -200 0 0
-240 -201 0 0
-271 -199 0 0
-272 -200 0 0
-273 -201 0 0
-280 -199 0 0
-281 -200 0 0
-282 -201 0 0